
%    +---------------+
% 10 | | | | | | | | |
% 9  | | | | | | | | |
% 8  | | | | | | | | |
% 7  | | | | | | | | |
% 6  | | |1|1| | | | |
% 5  | | |1|1| | | | |
% 4  | | | | |3| | | |
% 3  | | | | | | | | |
% 2  | | | | |2| |4| |
% 1  | | | | | | | | |
%    +---------------+
n=8;
m=10;
h=2;
%maxT=30;
boxNumber=4;
boxSideLen = [2, 1, 1, 1];
boxStartX  = [3, 5, 5, 7];
boxStartY  = [5, 2, 4, 2];
